LAMMPS data file via write_data, version 29 Aug 2024, timestep = 5000, units = real

192 atoms
3 atom types

0 12.72 xlo xhi
0 12.72 ylo yhi
0 12.72 zlo zhi

Masses

1 12.011 # C
2 15.9994 # O
3 2.014101777 # H

Atoms # atomic

166 3 3.732046106804398 1.9770008091839921 1.180633389402953 0 1 1
53 2 3.0985289245682477 2.644736740988252 1.4834432397067496 0 1 1
165 3 2.2231138469485647 2.4737581612588047 1.0594067889992864 0 1 1
145 3 2.596290603256242 0.14575263193106022 3.134052926758306 0 0 1
146 3 2.786666751210704 1.7638052020914867 3.0507756016446397 0 0 1
43 2 2.8146627532022475 0.9544678131645494 3.6598092746536173 0 0 1
36 2 0.5123672309547955 2.6268649768682297 0.14431910023614924 1 0 1
110 3 6.086024183469666 0.4691940480064058 3.314264117129512 0 0 0
74 3 8.142356167414725 1.7429127139599334 1.8758299529606899 0 1 0
7 2 7.186423176197961 1.6211691421883268 2.2453481799168262 0 1 0
73 3 7.030022038920761 2.4167030243868055 2.775603019551601 0 1 0
19 2 6.541609314097186 3.7656675919137306 4.0479851634076285 0 0 0
64 2 5.306833311296628 1.2230436329549463 0.28574353674840175 0 0 0
187 3 5.904413656367934 1.8461016829852022 0.6892593649050903 0 0 0
98 3 5.663926430322855 3.911790140349472 3.77560670620179 0 0 0
25 2 5.591101970497501 0.12924545001432952 4.060622475604574 0 0 0
109 3 4.612961831233528 0.22611184769463274 3.8545950941208487 0 0 0
24 2 9.662417510133483 2.0621643335947546 1.3299879449628873 0 0 0
107 3 10.12085416137939 2.906839398189082 1.1549087566715892 0 0 0
108 3 10.342792295189861 1.5372038164004864 1.8034411072975332 0 0 0
181 3 11.988831940973704 3.790245959682326 0.5579188795211962 0 0 1
63 2 11.425721239994049 0.5484966211438798 2.5601273134659683 -1 1 0
185 3 12.21105593662193 0.2187679194640318 2.0870408906759246 -1 1 0
186 3 11.777570300181372 1.0906730310498327 3.2977651158257344 -1 1 0
35 2 9.648601360937047 3.9986613921559684 4.1907474526314665 0 1 0
130 3 9.232764221289793 3.1854488359562927 4.0493951161142725 0 1 0
21 2 2.380229127454024 6.719136148357062 1.8620173295854698 0 0 1
101 3 1.5025479856523136 6.359188790636706 1.9519768602256882 0 0 1
52 2 3.973134380734512 4.9283475469838836 3.6209850674286943 0 -1 0
163 3 3.567633003430597 5.423493689809481 2.8604906162064383 0 -1 0
102 3 2.617969325591381 6.7758869641131865 0.928598449524509 0 0 1
178 3 0.08670537001893017 8.091213169332605 1.3084879812382424 1 0 1
97 3 6.970305268726985 4.654443144590286 3.9448568119754257 0 0 0
156 3 7.9089002111940925 5.822151461689275 1.6215160646874345 0 0 0
27 2 5.916077796770754 8.154803524566654 2.9198080446126387 0 -1 0
114 3 6.561368596630056 7.409802993388108 3.1508491271184753 0 -1 0
48 2 8.204537564871035 5.914206342279073 2.5988911641514014 0 0 0
129 3 9.310090529183197 4.506330653728708 3.4362457535106707 0 1 0
50 2 12.372977130023855 6.453075464234331 2.3107274020527484 -1 0 0
160 3 12.450012768857 6.134997518424773 3.226274182554662 -1 0 0
159 3 12.084823567673634 5.672241934003151 1.7564181882017669 -1 0 0
155 3 8.81458667236474 6.669293927063643 2.565510714687557 0 0 0
127 3 10.826429459703126 7.597716218172489 2.503110193905185 0 0 0
34 2 9.937303630181283 7.887292658939723 2.850591354656007 0 0 0
61 2 11.22267293411903 4.395156673112017 0.8479233466773932 0 0 1
103 3 3.1930970532106295 8.90148348159882 1.7421601976249785 0 0 0
112 3 1.794569923137638 11.77945316813688 0.8891943237984921 1 -1 1
111 3 0.8265976187160268 11.185968877673972 2.0459577849312396 1 -1 1
32 2 3.5630958119890073 11.833304303874272 1.2354393102924162 0 0 0
124 3 3.9253131655332614 10.888932730934828 1.2453591079811526 0 0 0
26 2 0.8610718737170935 11.80654491613486 1.2972880710311971 1 -1 1
22 2 4.077127579351543 9.261302994089174 1.478082527359086 0 0 0
177 3 0.6867038506259822 9.510424530231036 1.0366584148247904 1 0 1
59 2 0.09370995826889182 8.839838302444019 0.6959378458998852 1 0 1
46 2 0.9627960385549932 10.006735627008998 3.4393594923359205 0 0 0
152 3 1.630382670590683 9.531433651489122 4.0178037970630225 0 0 0
151 3 0.30170735903991486 10.311702340787562 4.068819808287693 0 0 0
104 3 4.759095817153714 8.636904831436054 1.9253600432514977 0 0 0
123 3 4.33461054774498 12.390544778459123 1.0147323381090516 0 0 0
113 3 6.371222046929606 8.997948964378423 3.164322892200726 0 -1 0
147 3 6.508920170165264 11.18937135181457 3.8441288839658188 0 0 0
44 2 7.160426948052617 10.454577559983726 3.74654903869906 0 0 0
179 3 10.218984211511128 11.699828195083997 2.4276671067510973 0 -1 0
60 2 9.770243036199258 10.839877547844353 2.257741315328604 0 -1 0
180 3 8.82084635329067 11.060030435793864 2.5278320933429845 0 -1 0
128 3 9.971919738764655 8.877734504315463 2.881720094218821 0 0 0
154 3 9.630536059305646 10.302552419474543 0.6512469993130933 0 -1 1
119 3 0.2123481356207016 2.855675427397386 4.39116033120523 1 0 0
184 3 2.3111236643619497 0.3206182555383205 5.305150712716826 1 1 0
157 3 2.816713976028362 1.4504972649771892 6.888354979061042 0 1 0
91 3 2.3477655341969386 3.3008298186276823 5.707821602629347 1 0 0
49 2 3.1523994018268033 2.39405681567295 7.066285193691893 0 1 0
158 3 4.109707973990113 2.3661846169352616 6.848659727038318 0 1 0
16 2 1.8166571128327569 3.784319835587496 4.995728517384552 1 0 0
51 2 5.85922593836729 1.7259030209560375 6.424622962274702 0 1 0
161 3 5.6793527859723865 1.0764868721100458 5.6701422069808896 0 1 0
162 3 6.26454376972544 2.399152789102876 5.893873272320827 0 1 0
105 3 8.253809010839072 0.6727471145518392 5.584920921142546 0 1 1
72 3 6.666404425504023 1.37691342550163 8.102165498425745 0 0 0
30 2 12.011993243615155 2.459340339321343 4.448333843640712 0 0 0
120 3 11.331285380599333 3.1362784246763744 4.3294100007230645 0 0 0
174 3 11.749292082034913 1.5043787844353422 6.377973706058062 -1 1 0
57 2 11.819957846926325 0.9023550060231802 7.132305121698691 -1 1 0
173 3 11.722497145995323 1.5283210558919313 7.894365423766518 -1 1 0
106 3 9.720567140451141 1.2338805646042204 5.530021376221682 0 1 1
23 2 8.860566963085548 1.226938104391094 5.064537004682681 0 1 1
164 3 4.203895446718643 5.607723140204352 4.317889750520539 0 -1 0
92 3 2.5731753432034563 4.297236648562882 4.515117128342037 1 0 0
170 3 3.5221190413412065 6.43527521638879 8.276869491236974 0 0 0
169 3 2.906340911628286 5.432677031120927 7.218401846822188 0 0 0
55 2 3.0579022397403883 5.5894816748699645 8.18115064104645 0 0 0
12 2 0.2632993947688075 6.067180318987388 5.4568074275442555 1 0 0
83 3 0.6944872076139887 5.179534223167779 5.457183524292604 1 0 0
117 3 1.5422490357038559 7.529041489982094 5.236346948337586 1 0 0
118 3 2.804715287604826 7.789890200936175 6.099608634808247 1 0 0
29 2 2.3116975021063366 8.12372321810008 5.343271094370273 1 0 0
172 3 4.679976288392382 7.42145712970812 4.937906843368745 0 0 0
171 3 5.842756262383667 7.098363435099068 5.825366659096608 0 0 0
56 2 4.89644436134182 6.839688521737788 5.708991748777719 0 0 0
81 3 8.431437761306707 6.73646188884791 6.2457163037762085 0 0 0
14 2 7.295866812139814 8.090662894026215 6.077595811833067 0 0 0
87 3 7.370618210072732 8.412040008804178 7.033661274669556 0 0 0
150 3 8.445019706622366 5.140046862580783 8.358941443889464 0 0 0
11 2 8.923503714033645 5.959629749721395 6.558119100165319 0 0 0
82 3 8.906610486629921 5.311389300893468 5.803218100327258 0 0 0
84 3 12.694021492023186 6.200282365346395 6.394550524338227 0 0 0
168 3 10.035873760439287 7.089086464260935 7.156551232007268 -1 -1 0
54 2 10.570277708106238 7.739795703514069 7.724200169744859 -1 -1 0
183 3 1.3520469143248464 12.564009567023756 6.487985881809666 1 0 0
62 2 2.314295010168833 12.626114670014443 6.253828899376593 1 0 0
136 3 1.9191820991823783 9.842133897037732 7.7455072849840105 0 0 0
2 2 4.677443989814434 11.106512682758337 8.28854776921142 0 -1 0
88 3 7.338177516790694 8.901689126297955 5.56371374435195 0 0 0
148 3 7.905194666829501 10.604628711793266 4.3899146576847015 0 0 0
1 1 4.47698330183431 10.710368616900652 7.1931165840177185 0 -1 0
3 2 4.336800927764794 10.375165130671963 6.088133825074966 0 -1 0
141 3 11.492685910187236 8.703825946609353 4.881667530026678 1 0 0
142 3 11.73516877349633 8.722849938219404 6.445355595533713 1 0 0
121 3 8.811724194898353 10.982163532315194 6.647579072559589 0 0 0
31 2 8.813356750508099 10.514744987739844 5.783470325368515 0 0 0
122 3 9.662368287205716 10.047929892194267 5.759603887681934 0 0 0
41 2 11.6112833657122 9.31679802607142 5.617517306802838 1 0 0
28 2 8.739166380167445 11.58574833779517 8.233168247287953 0 0 -1
131 3 0.8972588341256913 3.027629806065416 12.023180079687071 1 0 0
190 3 3.53915827235029 0.8606749918822554 10.190504421549162 0 1 0
189 3 3.9629484429662694 2.329057310479254 10.018058874546137 0 1 0
93 3 4.282389145425034 3.966595511863436 12.678540704902769 0 0 0
76 3 7.069774942289496 0.11284655097925317 12.403617163160485 0 0 -1
71 3 6.277892096053933 0.7595477043408647 9.47384681689045 0 0 0
65 2 4.249342901052355 1.5219574563894507 10.400741413524246 0 1 0
188 3 5.0433895021089805 1.4733729053070397 12.086357575239076 0 0 -1
6 2 7.050575655515763 1.0594927749699692 8.987252856243392 0 0 0
133 3 7.784555225992082 2.797959421900199 10.324776531779271 0 0 0
37 2 8.196611140750916 2.896787361344054 11.219829102556735 0 0 0
134 3 8.040775838655886 1.9401742284228154 11.552170415628662 0 0 0
132 3 12.527511282013647 1.9691795998337789 12.5585173070769 0 0 0
89 3 11.895417908136462 3.8113214229048737 9.344848401381906 -1 0 0
15 2 11.249878975190962 3.062440032505408 9.408016601083768 -1 0 0
125 3 10.212581347360333 1.1295741593778827 12.049232769820422 0 1 0
33 2 11.090891775541705 1.0869968377419232 11.634884019629558 0 1 0
126 3 11.006716833473915 1.643898411078126 10.79910944927721 0 1 0
90 3 10.396850961904345 3.413675865079736 9.113331264392475 -1 0 0
140 3 1.744501662381395 5.028841768604381 9.997918783335663 0 0 -1
40 2 1.150524131674803 4.690978767402669 10.698230329882534 0 0 -1
139 3 0.8909869320598531 5.469315980516162 11.232135106530048 0 0 -1
58 2 0.36035645199311206 7.333378508022387 11.016132523007622 0 0 0
18 2 3.646142820068227 7.055771554210078 12.136433791779565 0 0 0
95 3 4.058644190917919 7.914257678077152 12.49919173681717 0 0 0
68 3 3.951936271515827 7.67217169916999 10.393346933887205 0 0 0
175 3 0.6178522222003309 7.728723170003965 10.187948548769118 0 0 0
176 3 0.4440817101147359 8.007087757430869 11.74025507028516 0 0 0
86 3 6.347845102146054 4.376202587508966 9.333274725633999 0 1 0
17 2 4.91593371851591 4.545046774219147 12.261659645238398 0 0 0
143 3 7.920817733803857 4.761559283402944 12.362736740419418 0 0 -1
94 3 4.925398463487341 4.255767229388374 11.330856804970086 0 0 0
144 3 6.57519240248332 5.094523650922739 12.692571142704706 0 0 -1
42 2 7.447118155798667 5.52583632426626 12.702124505329971 0 0 -1
85 3 4.8986415198067 4.701199345717201 8.843060018736152 0 1 0
13 2 5.4238364436287165 4.406952713603641 9.595511807972272 0 1 0
149 3 8.425211879939283 4.903578355040717 9.917126729702842 0 0 0
45 2 8.241652071979349 4.484566239043323 9.062082684317177 0 0 0
96 3 4.325854913667478 6.3706039053444155 12.220972350345814 0 0 0
4 2 4.343957444488722 8.10349737090184 9.638606105325366 0 0 0
70 3 7.9122271442275816 7.342391305246166 11.5992004455383 0 0 0
182 3 11.038262781678824 4.855224043222951 12.64992775292511 0 0 0
167 3 10.64515191368596 7.333099160211729 8.617321397210636 -1 -1 0
5 2 8.538977991492317 7.918821415888256 11.129015815957846 0 0 0
9 2 10.65238655371088 6.177927162842286 11.228903032544775 0 0 -1
77 3 9.992544714141667 6.8940780411782105 11.246263299900312 0 0 -1
78 3 11.50907406023 6.613036823122973 11.03898079204154 0 0 -1
137 3 1.3586570529462685 12.087755456959394 11.00352390217632 1 0 0
39 2 1.7938456678576689 12.23481178543334 10.183834111379824 1 0 0
138 3 1.6281411611154746 11.316269044686134 9.72566579700412 1 0 0
135 3 2.9211604265632722 9.304942910511686 8.901633733519297 0 0 0
38 2 1.9889192650509424 9.604161713875785 8.713506767902789 0 0 0
99 3 7.843777562277905 8.532009007857614 9.566286305432143 -1 0 0
100 3 7.23267899302723 9.61207211647008 8.810478746729714 -1 0 0
20 2 7.186267639876514 8.650550613895454 8.824347876345056 -1 0 0
8 2 7.773418155757602 12.631002125430761 11.795062592537976 0 -1 -1
116 3 8.15265407827109 12.309355339046043 8.62366435707732 0 0 -1
67 3 5.140305077895622 8.51440730413402 9.951753035968755 0 0 0
191 3 6.381099318622298 11.10161011204216 11.441155706285246 0 0 0
66 2 5.707933851704205 10.40047094338577 11.273064317205614 0 0 0
192 3 4.886396620275417 10.820504610890524 11.088693524778044 0 0 0
75 3 8.103735657714827 11.843425493402746 12.217372085925545 0 -1 -1
79 3 11.55504446338492 12.104589771659278 11.412386874766607 0 0 0
69 3 8.790337982372094 8.715067293646385 11.670075367920992 0 0 0
10 2 11.557242493532325 11.12317936005458 11.404895535153344 0 0 0
80 3 11.943058477405263 10.860961560605324 12.243579598017662 0 0 0
115 3 9.468264937415402 11.596874194836277 8.881040392986645 0 0 -1
47 2 9.28373027065552 10.125243679104244 12.442188559146217 0 -1 0
153 3 9.9145554088551 10.554714908647433 11.870537616969274 0 -1 0

Velocities

166 -0.006291108392387325 0.003580002484020949 0.0034445969884651442
53 -0.0029833806038868866 -0.009412460240390401 -0.0023307929854508506
165 0.0051614567706821995 0.010636167102716717 -0.006248955764384691
145 0.011183150626813913 0.008817184175655886 0.0015210258931307727
146 0.0013162921435339262 0.010681753957334065 -0.00034622193593670977
43 -0.006645364564042857 0.0016167135042432568 0.0002156038015129358
36 0.0036596757355770015 -0.0014160898942693488 -0.0026109518175902865
110 -0.013703712952134576 0.00134345343090747 -0.021842158041185132
74 -0.01998967756997335 0.010588533210756404 0.003663561973400935
7 -0.003027918266164023 0.005204919999960982 -0.0019890081667747624
73 -0.001626950874699241 0.010166255162682125 0.0006056089685528284
19 -0.00019014907616045847 -0.0007072640136101319 -0.0012585788615755377
64 -0.005466699276591065 -0.000475347426196774 0.00912222132679244
187 -0.0027617874575888656 0.013538341548347007 0.0011017105363890518
98 -0.012639750830612976 -0.005872143446275163 -0.00466262995215187
25 0.007207127552012177 0.00572210676711753 -0.005925970276943661
109 -0.018278472909496805 0.002092848933877097 0.028585974915451697
24 -0.0023628669616557432 0.006134663529916078 -0.0035495260942715076
107 -0.01010876440423048 0.00727189920053074 -0.0009463256307594075
108 -0.00017247719547103837 -0.0007032623426431127 0.005790591953458212
181 -0.01013184348616126 -0.013203673108239675 0.013182357462717497
63 -0.0024987760676626206 -0.002440132754053754 -0.0039643169241433485
185 -0.01850178254326995 -0.012907324420824403 0.003575055958019348
186 -0.007105140748678353 0.0026217938150830847 -0.016666560683032676
35 -0.0010419572367961888 0.0019211055225327556 -0.0064247450432182085
130 0.001959260982274984 -0.0017619354279247502 -0.009528950968012156
21 0.002362456785874027 0.0036116319295082596 -0.0010227961236019185
101 -0.014424804925516694 0.025958124402335046 0.012584568119910041
52 -0.0033067814419730094 -0.004903960729817123 0.004357695864067626
163 0.021371097581855736 -0.021456019209141114 -0.0024488530189002815
102 -0.01638778609695036 -0.0024620548322961755 0.008077854582121999
178 0.004052930010145032 -0.0018567949001625536 0.00012200389012593534
97 -0.010844531096495195 -0.019766232069303336 -0.011222865700225935
156 0.006363086670607248 0.005803317276701384 -0.02415704210865229
27 -0.0018811004008762052 -0.0033183969337963835 -6.1485497523119e-05
114 -0.014382618570552261 -0.01596429733867122 -0.004714293275264012
48 0.0045631613405506975 2.5205821505727166e-05 0.003199790389734084
129 0.019705975426432803 0.013176341229221488 -0.01050828291458293
50 0.006925335131591534 -0.003346308461035276 -7.661147489248962e-05
160 -0.0007457147357441916 0.008719692922919086 0.007158085248476028
159 -0.006252515704516827 -0.00479981821651597 0.01921074164314228
155 0.00030485994046170877 -0.0011272475646986336 -0.0069018949186172626
127 -0.0202730052403381 -0.0007353746486058975 -0.01205237425136067
34 0.0018129347588572335 -0.0017161988348483798 0.006510750556588146
61 0.0025374047100978343 0.0062054909537853295 0.006443181271223722
103 0.00793085781067738 0.00819623304023447 0.011265481737606563
112 -0.0034804319606138797 0.017784395175559395 -0.014214024550509494
111 -0.01973132779427361 -0.0024219120581615793 0.015340044468477148
32 0.0010567159752719966 -0.004713684163551457 0.005928631842373149
124 0.018873311266217208 0.0022391550501275914 -0.002176952398311652
26 0.0017522295348760828 -0.004245951988687547 0.002138591633838824
22 -0.0018875983116656023 -0.0008058304135173968 0.0015701892399278522
177 -0.0005879998189451399 -0.0007170889496378044 0.006233429766918552
59 0.005291390359742575 0.0006152607545111605 -0.0021288427384742632
46 0.0007212746891937981 -0.006093197874798243 0.00492207771126522
152 -0.003738502472084287 0.005731125353748387 0.003428610417603163
151 0.019261197102189525 -0.013508655141778281 -0.02156716247397554
104 0.011228860720574954 0.014271581376791997 0.0021641739729516543
123 0.005523063752623778 0.00613101989478359 -0.018863276944512494
113 0.017849058532286008 -0.009061893677499076 -0.001387456567790065
147 0.01045198922093777 -0.00641406246820711 -0.0065763285846899425
44 0.004621612869186076 -0.00541039314323331 -0.003047355098903548
179 -0.002673997967667334 0.015857763716606042 0.017593431799692298
60 0.002215244699087152 0.0011945867778513088 -0.005735453977351768
180 -0.012771714777169672 0.002787291084005598 0.00852778674785935
128 -0.005438273364974431 0.02012483193192098 -0.018133766844801776
154 0.0035363031902312437 -0.00254432382488699 0.007671604361837366
119 0.008386187413444332 -0.0059119183644220814 -0.0040461222296180824
184 0.0002135881755122697 0.016787607975171197 0.013994355751403943
157 0.0024339323723681482 0.0006782662203093927 0.00017708191660805616
91 0.012588051810669784 -0.012287332228603898 0.0003460031873153481
49 0.006876805358382672 -0.0008243457306116824 -0.005652445458236776
158 0.0035418878064979163 0.003729699026819667 -0.0034222208590948384
16 -0.0008991778526169773 -0.005214728969270045 0.0045230350901814065
51 0.0038885422653514076 -0.0029762984421753654 0.0006023685252953088
161 -0.012810527436287626 -0.00576258960056962 -0.01893768014181518
162 0.004933254733859108 -0.0011123889654634873 0.0023080781542632227
105 0.02467739140914564 0.0068231946534904305 0.01605262522695408
72 0.010396817504160969 -0.002825443015044926 0.00633485452224007
30 0.0035533770176873333 0.005627208973444684 0.00048437145460301283
120 -0.0019779373066041335 -0.013547867676796563 0.004601953608898654
174 0.0031388681252768713 -0.020354274217497036 0.016678117043322883
57 0.010592158551296176 -0.0010213727222750273 0.0016011769853465038
173 0.006827385863138189 -0.007128313926140369 -0.005331195910290144
106 -0.005577861803815396 0.018251843415517017 -0.004368958679702352
23 -0.0010058118442395137 -0.00047652894825892726 -0.0012639437674295691
164 -0.002785250527135668 -0.005595736074448931 0.01650009363151844
92 -0.009764790785347779 -0.014500781948372014 0.0003335886767511415
170 0.006189385443681738 0.01023275515861396 0.0031159283240913484
169 0.0026180706336204505 -0.023638960039427257 0.010299120956818553
55 -0.001525457849350571 -0.0017534762750193514 0.0027754011337058175
12 0.00023446033866783924 -0.007632089345354337 0.006151686989661191
83 -0.025584238476981946 -0.004539081778260771 -0.004565379922446698
117 -0.0016227798486869425 0.010649543062699713 -0.005295465119759503
118 -0.005303760879883955 -0.012092842378304582 -0.005692638904482449
29 -0.006891533923329452 0.004643389291315212 -0.00694714246450124
172 0.0011963821416230776 0.01707572555265751 -0.003909898760482842
171 -0.02415280703649905 -0.006650599540087177 0.006422942885954018
56 0.00024401641545879888 -0.005990715770482595 -0.002052623532226828
81 0.005616815889137435 -0.017225540102377666 0.020159546536981987
14 0.004152587113433086 0.005539142984351529 -0.0006099518416638967
87 -0.017794181266756543 0.010445378450148623 -0.010744018725825743
150 0.00019126193577555066 0.023611863003118745 0.001275685404956722
11 0.0060582987086870085 0.00837458639961482 0.005961837035298928
82 0.009131566373059126 0.007058775192008492 -0.0030310184858302934
84 0.008656514113306885 0.018228490928454716 0.004737689440437765
168 0.012982005796003742 0.010371721194601904 -0.0008705919491723531
54 -0.00446711458593319 -0.0011000790892566918 -0.0057199378979513795
183 0.007001562813586673 0.004267203003328249 -0.01471270165311858
62 0.0019309048374733587 -0.003520076784472555 0.0030473093547274343
136 0.005789005639686614 -0.00681462762666495 0.006976551270891825
2 0.005981439606825149 -0.0018453338372394741 0.001079296001698862
88 3.64557446256781e-05 0.006337629587317973 -0.0016325715099994229
148 0.002617400716771431 0.014241453082299384 -0.003656310628597357
1 0.009243825325488248 0.0052469007507101135 0.001567834568174752
3 -0.012789015961663453 0.002062835211566501 0.005403507770321343
141 -0.003680224146801562 -0.0003530923638250896 0.005551567215642599
142 0.01586935660480179 0.008159380865453794 0.014597760590319683
121 -0.005412725290083416 -0.01614516889366088 -0.0027201339944406314
31 -0.0007628296009345616 0.004552186500328881 -0.0015334636674595328
122 0.001495638792495802 0.01418400394417034 0.01562545252775971
41 -0.004141574061389308 0.0035081100190506313 -0.0017956677968954862
28 -0.00652087302769865 -0.0012096774549637626 0.005736030717044417
131 0.011814642886325128 -0.009742102444030652 -0.003915408868821341
190 0.003978706976323274 -0.00835853764216366 0.0017531792032976308
189 -9.812583017799228e-05 -0.009457197202147901 0.0026379363760180344
93 -0.0013526393941010557 0.0007272636762142747 -0.015998571557011624
76 0.0005847420985270179 -0.021361679417531088 0.00156996378512383
71 0.021936889059697144 0.022290968858245903 0.01472221446304668
65 -0.0009402137701338255 0.004473623122885256 0.0036071032216044648
188 -0.004861864407143961 -0.008672261154805211 -0.0081504701717757
6 -0.004302732083783783 0.007183210642189359 0.0009188546743109892
133 0.007814139989341183 -0.014402758840748467 -0.009123069572606142
37 0.004261163791628024 0.003332105950596945 -0.0030362788458665733
134 0.00601899367459651 0.01167062573277066 0.015031537952317773
132 0.0006316065220720685 0.011460313449137779 -0.015207068343525556
89 -0.0251402031149535 0.004198446265035022 -0.01036388032511851
15 0.004220522549200268 -0.0011704710517735177 -0.004515441248891438
125 -0.007069852017539756 0.0040414334645920025 0.010940548942589074
33 -0.0011739424470710116 -3.164891332016378e-05 0.002668444279994766
126 -0.009827952623693894 -0.009357583685069362 0.010581934640852223
90 0.0012860413008511653 0.01719548652892773 0.014630703420083683
140 -0.011843122454327292 0.003739113280263461 -0.018635219712336025
40 0.0009418457509106559 0.003188191935409136 0.0017568254921308537
139 -0.006626932234645293 0.00474990158746975 -0.006909824529006133
58 -0.007564868118359554 0.003041614292972734 0.0005314420094851788
18 -0.0040082330789071394 0.004267748900071131 0.0022812335493289557
95 -0.007751838172535882 -0.018403014877454032 -0.003689930604932482
68 -0.0072903672327358756 0.0016516727127829957 0.0005691962280267052
175 -0.015211432987001863 -0.019242288989748276 -0.0011838781607437707
176 -0.0019361435605605348 0.01761909673490871 0.004223465183541204
86 -0.009306352024109484 -0.01216689548946531 0.004144978599810132
17 -0.005869779718884851 -0.0026915798553522434 -0.009089519127710968
143 -0.0023015546942526605 -0.009426187430375852 -0.0051332532450123715
94 -0.009502285914130772 -0.0010025147886480162 0.0010557515853486786
144 -0.007407665307724026 -0.010596539198901841 0.001092696317811042
42 0.003927472447149179 0.0006063557821910646 0.002521192108610808
85 0.029027667879580096 0.005745147279956399 -0.011908645648722987
13 0.0012045146129238482 0.003963978540866182 0.0008540482718461738
149 0.011683550266182936 -0.024679039167262832 0.01582152145010831
45 0.000257200648527699 -0.0060267034608224085 -0.006796035800138054
96 -0.004476015510204191 0.0007048616380393758 -0.0009116958509736432
4 0.0014397134767403783 -0.0011976686927510768 -0.0029861433328925964
70 -0.0035303502922967734 -2.8014424804445577e-05 0.003794807146591615
182 -0.0005202221829956359 0.010333411747788668 -0.019178404665803762
167 0.016820816959262685 -0.014310857720404637 -0.0012483143109365076
5 0.0011744532298107564 0.0018231492886861033 0.00029587943766608244
9 0.0019347222068689053 -0.004495708392494003 -0.00036688711395895234
77 -0.0010402687710747564 0.016862299111723957 0.0005364002280397263
78 -0.018173083010198477 0.014261562540657148 -0.0024804756245215276
137 0.019024576444571693 -0.005345524646414286 -0.021791066032102978
39 -0.002490654165028537 -0.0012517784693460393 0.00016318330916366387
138 -0.0009157055594307177 0.013889266837071975 0.010258003672126318
135 0.004320085199617085 -0.018140517479487753 -0.011503971822524914
38 -0.0034206262434729085 -0.0017522823082650326 -0.0017155288448825968
99 -0.013115146987027695 -0.032822157686608296 -0.007096885640928543
100 -0.01842773550347286 -0.003398730683237314 0.0020333673682430635
20 0.0009721949196790579 0.003169006066240515 -0.0015510554073824925
8 -0.0025592551361677514 0.003022629790235356 -9.707293357011502e-05
116 -0.011277083771824445 -0.004087610871330895 -0.025090432553161117
67 -0.010252979955065206 -0.0005302248940962759 -0.009499228152015406
191 -0.010184284797838134 -0.0031235272074994287 -0.009995583126835458
66 -0.0037768655052270077 0.0009669649843153486 0.004991305769677701
192 0.007572790254645034 0.006963210227749331 -0.009354688143499233
75 0.005648597593143108 -0.002179584074551019 0.005619314610867826
79 0.0014375244731034311 0.003948239783556799 -0.0013100241686172217
69 0.0016671355694804445 0.006118038426105908 0.01407178649142132
10 0.003888198636663425 -0.005609949375530693 0.00046841005324645845
80 0.006185380402979002 -0.00778957357297832 0.022947329205858125
115 -0.006417171795761372 -0.008932152518205451 -7.469958853425394e-05
47 -0.00022313735657236803 -0.002626361592567717 -0.004871146029060651
153 0.013123744423012793 -0.016996716622306667 0.006621388112948539
