LAMMPS data file via write_data, version 29 Aug 2024, timestep = 5000, units = real

192 atoms
3 atom types

0 12.72 xlo xhi
0 12.72 ylo yhi
0 12.72 zlo zhi

Masses

1 12.011 # C
2 15.9994 # O
3 2.014101777 # H

Atoms # atomic

57 2 2.6269717084094304 2.943896730483584 1.9487643917740722 0 0 0
173 3 1.7100645251887736 2.7625441057517683 2.252097691728636 0 0 0
174 3 2.9348782366663806 3.6201558069393607 2.5755045784008535 0 0 0
10 2 0.5218918337518702 2.021263652462952 3.722257885580174 1 0 0
79 3 0.815978763588059 1.121995097984954 3.367544512490384 1 0 0
132 3 3.121197780978812 3.838483005359314 0.18583420084586463 0 1 0
75 3 6.127444437256108 1.7632367415993773 2.9912288561683495 0 1 1
8 2 5.867017095161362 2.622241646843893 3.354175179262878 0 1 1
110 3 8.210109207242757 0.37183361432203194 2.640486157635417 0 1 0
25 2 7.2502533848545365 0.19694555741062433 2.7050989852978886 0 1 0
182 3 11.373685207005899 2.2446626067192224 3.150001357865032 -1 0 0
61 2 10.419465200959637 1.9986352468736994 3.1146865594189563 -1 0 0
181 3 10.434204629895921 1.4761366921002697 2.2872716988439614 -1 0 0
41 2 9.862058176356019 0.4153321200752545 0.9599910338965547 0 0 1
141 3 9.129435335185091 0.9672829737574319 0.6682804934128306 0 0 1
142 3 10.360835177217547 0.025099071477363143 0.1605732510621193 0 0 1
70 3 9.659194542568734 3.737891939331154 3.8062086889232187 0 0 0
60 2 3.695100351992944 6.5111707562260435 3.082401727344753 0 0 1
180 3 3.163454274218992 6.765262217878613 2.289079636095659 0 0 1
44 2 1.7194997576105762 7.9848594449010895 1.0021272193624096 0 0 0
148 3 1.7080431930714273 7.486680909870072 0.1857265910010501 0 0 0
82 3 6.257056763118234 5.488362717853175 1.2752390571261316 1 -1 0
179 3 4.5117032000063455 6.039778018066842 2.763676649383025 0 0 1
81 3 6.117896649326599 4.265148658191345 2.1570618041539715 1 -1 0
11 2 5.876798396039948 5.236195594441609 2.1224054527041294 1 -1 0
99 3 7.007999278044606 5.6873858792055705 3.6687231097435107 0 0 0
27 2 7.889660223289577 6.880705754953847 0.5213703651568229 0 0 0
114 3 8.142073655846024 7.421133516423626 1.3132481273623564 0 0 0
113 3 8.46193607401834 6.1223112194176235 0.6261901529421048 0 0 0
104 3 5.013962614816984 8.091422637414219 0.5259766619096714 0 0 1
32 2 11.835935226391827 6.249610422114182 3.8025806847613435 0 0 0
24 2 11.685357355551467 4.99235241528679 0.6232596813168523 -1 0 1
108 3 11.66454406313183 5.201653949953098 1.5988926418863973 -1 0 1
158 3 9.962057662717067 8.318754540659018 2.6747361568106562 0 0 1
49 2 10.282050865972508 7.784998862163118 1.9552282475918485 0 0 1
157 3 10.836720546793215 7.13066181979804 2.425198176037657 0 0 1
124 3 11.222859926408992 5.564383841172454 4.131524443967273 0 0 0
107 3 12.406047230845445 4.306714860261801 0.4810828189959581 -1 0 1
15 2 0.702924915034048 9.667924077102041 4.011081314160403 1 0 0
89 3 1.6629968322813076 9.328850305314106 3.782195183693217 1 0 0
90 3 0.11715132163442392 9.166872167215814 3.4411008981269466 1 0 0
26 2 3.3803996357013517 9.610226293157071 4.009175546429948 1 0 0
63 2 0.7690476010470884 12.25830968270648 2.6622756043535305 1 0 1
186 3 1.304104822987658 12.005689188905734 1.8864114323951824 1 0 1
185 3 0.8481112995459422 11.550738606760119 3.2630729384349872 1 0 1
48 2 3.240004276794276 11.492218075725008 1.1946145570974607 0 0 1
155 3 3.5447340455934273 10.943059670993112 1.9472284039259766 0 0 1
156 3 4.096149508498881 11.794661246177439 0.8769035823150865 0 0 1
147 3 2.3632462574812028 8.70679815386163 0.8539011793162711 0 0 0
111 3 4.121340812708779 9.255330667974304 3.434184260497794 1 0 0
188 3 0.3282487611638818 8.966419414258022 0.6137321600926362 1 -1 1
85 3 6.131253247835882 8.573534128804747 2.422250235604795 1 0 1
34 2 7.678149676701715 8.741514571522675 3.663470440529122 0 0 0
13 2 5.3769007202760335 9.027321143648772 2.0818842018592623 1 0 1
86 3 5.789657753764542 9.810092762039025 1.5756670989288009 1 0 1
170 3 6.748457537206949 11.871664142567877 1.301539678916883 0 -1 0
55 2 6.432296546412796 11.078759607235188 0.7733674000136853 0 -1 0
109 3 7.076793098103043 12.295919528944472 3.4412622140714046 0 0 0
128 3 7.4665028077770055 9.594599074799858 4.06453851996136 0 0 0
160 3 9.989112270208555 11.349973912599644 2.246024890632957 0 -1 0
50 2 10.414496980939827 10.637355126446876 2.693807665297543 0 -1 0
159 3 11.316970647013452 10.873361104290401 2.44130715980325 0 -1 0
187 3 11.491611804279529 9.124043893771699 1.044495851278809 0 -1 1
64 2 12.204260955713753 9.567790231135001 0.5355300194474352 0 -1 1
80 3 0.8946114355144275 2.2510433687660227 4.671524522983379 1 0 0
33 2 1.0952525866532807 2.7232461934605023 6.494978664913715 1 0 0
125 3 0.1719387866094514 2.4897615575473075 6.774915446932225 1 0 0
67 3 2.5380035881463967 2.0104792750434464 7.95507854999463 0 0 0
4 2 3.488768094898002 1.855664985715578 8.053054014505216 0 0 0
126 3 1.1382293707972313 3.6786850274804066 6.225647423220154 1 0 0
144 3 3.1867600976020856 0.5131307055726658 6.268429807127738 0 1 0
76 3 5.902988513559899 2.556050072829633 4.308204548950568 0 1 1
163 3 5.086388517975754 3.0660318878835215 6.4342566765204285 0 1 0
52 2 5.932540735972094 3.196390167443792 5.921789393494097 0 1 0
164 3 6.533871910895155 2.5553976701683165 6.307108801013634 0 1 0
35 2 7.965762455051103 1.7727370225851744 7.080245095725104 0 0 0
94 3 6.83836658658241 0.3179389253074387 6.86588136253148 0 1 -1
130 3 8.335605785993762 2.056048251994076 7.9509678073389916 0 0 0
28 2 10.219038867232396 0.7324068233283894 5.446313375687571 0 1 0
151 3 10.43911106179746 3.287513943437769 7.553240966866413 0 0 0
46 2 11.080999654461657 3.5125740724835657 6.8542665393092985 0 0 0
129 3 8.767743006825938 1.5447923005818052 6.456466673818245 0 0 0
152 3 10.615028401961386 3.5717703428648386 6.010125600992816 0 0 0
116 3 10.268538347368988 1.0878824314876205 4.497866132190637 0 1 0
115 3 11.153568939969281 0.8638947417003913 5.694301166251531 0 1 0
53 2 2.1497536752873607 5.622720167616583 5.2268877190965615 0 0 0
165 3 2.726966409933685 5.901228656571185 4.425558409015721 0 0 0
166 3 1.7821135270378676 6.442003115437069 5.605859542755772 0 0 0
6 2 0.659279161428454 8.107020340589505 6.2607385562454 1 0 0
51 2 3.6466526115652833 4.726049200081712 7.636477889123549 1 0 0
162 3 3.096002604891818 5.013255968341353 6.872853456357191 1 0 0
161 3 4.462510741187273 5.22290590198509 7.451538183623267 1 0 0
100 3 6.848067784605732 5.199620587363979 5.1434173765170845 0 0 0
20 2 7.313670754266263 5.8381418824073466 4.598358441017654 0 0 0
171 3 6.166335428163176 7.5916767538320915 7.194292293114832 0 0 0
56 2 5.3632807724062275 7.130186577916867 7.402149189315312 0 0 0
172 3 4.673517619050311 7.883861654726703 7.270503148607791 0 0 0
127 3 7.49218552252768 8.007491591316107 4.292959971118545 0 0 0
5 2 9.911159479822139 4.351093775696685 4.493630800979486 0 0 0
69 3 9.105536472367527 4.86655994501642 4.635862142051009 0 0 0
123 3 12.71116589908879 6.240238391411116 4.264162520975433 0 0 0
92 3 11.929241786043562 4.742788973708352 7.950927714108193 0 0 0
119 3 9.777293320956504 7.2176049948490295 8.041372749730675 0 -1 0
112 3 3.4721223408998836 9.308247582256799 4.920373930600578 1 0 0
143 3 3.115480902625901 11.787929997283332 6.430902664364694 0 0 0
72 3 0.5993194987070053 8.65387783899044 5.43141227364258 1 0 0
122 3 1.0833920929695586 12.323036457536265 6.658175139805614 0 -1 0
95 3 2.326516141405718 8.647035527369782 6.6229092296688465 0 -1 0
42 2 2.8485223382492215 12.446491008803704 5.762897881768586 0 0 0
18 2 3.2504382109645804 8.897867933584429 6.60732935436731 0 -1 0
96 3 3.2697898125918106 9.70881082827768 7.213843515365136 0 -1 0
29 2 3.7984854422872907 11.252726963131106 8.446685055776754 -1 0 -1
31 2 0.29392088311955944 12.211943521889955 7.244393950804352 0 -1 0
150 3 5.376434031105872 10.820879778370793 4.337293122557942 0 0 0
45 2 6.256780473639396 11.068343236868046 4.532158175511301 0 0 0
149 3 6.1628804262555965 11.482370393992118 5.446241088951834 0 0 0
117 3 4.642577561372993 11.531524292726901 8.083295339369755 -1 0 -1
47 2 8.039563000094041 8.773896205971791 6.926511498473 0 0 0
153 3 8.327742290444926 9.582816612587566 6.434392536265593 0 0 0
154 3 7.853815125825402 9.111106653021475 7.821402724288117 0 0 0
93 3 6.686434768036951 11.582071110561575 7.402725455605837 0 0 -1
17 2 6.24832513919176 12.279813943831824 6.877546114424103 0 0 -1
71 3 12.707340971046248 8.606191749221756 6.809061997218165 0 0 0
121 3 12.464639840227298 11.393336463119173 7.01122426711648 -1 -1 0
84 3 9.676545167913899 10.643006611619116 4.479493308696148 0 -1 0
12 2 9.559481791716475 10.903886158785363 5.4222134546619465 0 -1 0
83 3 9.91999833821717 11.862800541721787 5.387909348329573 0 -1 0
138 3 10.66399384902822 10.117906104092903 6.505209365922848 0 0 0
137 3 11.294785889316758 10.180012419003996 7.917861400120999 0 0 0
39 2 11.532333873123847 10.046679550809609 6.912861099072031 0 0 0
3 2 2.9163062100609882 3.085108393259651 9.88486212635635 0 0 0
1 1 3.7689701589240396 2.5085375980838944 9.243260981372408 0 0 0
7 2 0.5857730622588959 0.47382042802022273 9.910842522623836 0 1 0
74 3 1.4963884832981467 0.1625861305627518 10.055539398518274 0 1 0
131 3 3.3067212039720704 3.8735467501459766 11.32517384032366 0 1 -1
73 3 0.28873143428682435 0.2534535820089504 8.995681082874425 0 1 0
168 3 5.481274752780524 0.02666192700495612 10.625119719780093 0 1 0
101 3 7.301225980015075 1.2238325321150028 11.893653185504991 0 1 0
21 2 7.643702835633413 1.9970660084976035 12.326678038282969 0 1 0
102 3 7.009502407881242 2.642168463012456 12.071702947428575 0 1 0
2 2 5.055355841957958 2.402500840443629 9.523515303008844 0 0 0
68 3 5.268613371636876 3.013374103347343 10.270259930207988 0 0 0
66 2 5.884022802107761 4.1130973517677285 11.46256185791809 0 0 0
135 3 9.04428418881824 3.2963554753626942 12.221113038778398 0 0 -1
88 3 12.193674605124288 3.4984363502805804 10.210112253184537 -1 0 -1
145 3 9.153262149759943 3.731304181061767 9.641813136661556 0 1 0
87 3 12.58130314977307 1.9885015010775844 10.6177716660145 -1 0 -1
14 2 11.922915729341195 2.7383882971817326 10.776391736299585 -1 0 -1
43 2 9.554393316446376 2.897765333098705 9.245572957436607 0 1 0
146 3 10.345135170498395 2.74837256061758 9.759758889958299 0 1 0
91 3 0.27843276143369783 5.442011073057159 8.772043305742153 1 0 0
59 2 2.144029442204832 6.6735037638268855 9.020795213967476 0 0 0
177 3 2.744806349863072 6.03779903972343 8.636443057096567 0 0 0
178 3 2.112083026672698 6.525984916668264 9.987742598424237 0 0 0
36 2 3.3685204443061383 4.427956777714822 12.185054341306234 0 1 -1
23 2 1.5208863288343326 6.271736109781548 11.809424454661935 0 0 0
105 3 2.1928511089236853 5.523480709846231 12.050740334781304 0 0 0
106 3 0.60372817886844 5.926855994941452 11.869277423348214 0 0 0
191 3 5.00664433452565 4.433836959266339 11.852074146225707 0 0 0
192 3 6.21592342096695 4.810066063644272 10.88057301863093 0 0 0
22 2 4.93156809131002 7.654525258834313 12.33562324534111 0 0 0
103 3 5.805166786724622 7.29081747410008 12.274777795504438 0 0 0
40 2 8.076691629521761 5.339055916977716 10.042802991978599 0 0 0
134 3 7.242556512902164 7.207672245694688 10.29948372396546 0 0 0
139 3 8.476796291353264 4.963876398895585 10.870278433398761 0 0 0
37 2 6.76725337130438 8.023189102941002 10.004176214486167 0 0 0
133 3 6.171108929897542 7.617101052040917 9.323892302662586 0 0 0
16 2 12.083573510884161 5.144530213804069 8.819017239811552 0 0 0
30 2 10.129698184664832 7.107001346060391 8.922851582167612 0 -1 0
120 3 10.874666790146923 6.4426131130995365 8.823448781074857 0 -1 0
140 3 8.883518371838793 5.818645737674357 9.724737884550908 0 0 0
38 2 9.222643258409557 4.248516536543934 12.286233366359868 0 0 -1
136 3 10.104343217694277 4.4280514968009435 12.637397853574672 0 0 -1
118 3 3.9171526503790783 10.361462459592927 8.91674338416501 -1 0 -1
176 3 3.0976548645418154 11.993496925449653 10.22822336281009 0 0 0
183 3 2.8924874009350097 8.504633422175093 9.830120655694072 0 0 0
62 2 3.4297043613133216 9.197785516316376 10.241945441108843 0 0 0
184 3 4.068672186957617 8.692288101421052 10.78922017314551 0 0 0
58 2 3.0166516005747024 12.41716036390012 11.059634156287434 0 0 0
175 3 2.603603722309435 11.841757407337614 11.700638038700466 0 0 0
54 2 6.2994715166817254 12.407948984610666 10.913351227328096 0 0 0
169 3 6.522354223433259 11.30663657699165 12.537259150998146 0 -1 -1
167 3 6.587357886063525 11.924191628296164 10.129508136843462 0 0 0
9 2 7.539675816949573 10.538728884706371 9.04196952125138 -1 0 -1
77 3 7.380827972116771 9.738144278048049 9.642317615228503 -1 0 -1
190 3 10.80273934292531 10.074353157207602 10.365999407487406 0 0 0
189 3 10.412981610042113 8.893286702418536 9.249650112645622 0 0 0
65 2 10.554700265249373 9.881070787971936 9.428185208105857 0 0 0
19 2 11.120841431613723 11.377656586195503 11.582709439773533 0 0 0
98 3 11.964978892426823 11.778671487295851 11.231356046512728 0 0 0
78 3 8.501523644720512 10.678721810022568 9.102025260070537 -1 0 -1
97 3 11.542236153988505 10.67416347251899 12.231573135514578 0 0 0

Velocities

57 0.0029047682842758727 0.0013884710512852125 0.0022814277129798066
173 -0.026637868511987767 -0.010209787873046291 -0.009980875329159526
174 -0.014265427927757873 0.00431395646699907 1.1445610837887219e-05
10 -0.0026489626795916242 -0.004772078638318294 -0.0019259422666050654
79 -0.0046110172588257675 0.010207356276794184 0.0013067220428757873
132 -0.0008964343732542764 -0.02383673366983464 0.011096967800805175
75 0.008449200857633536 -0.013346076783524988 0.011316389413648787
8 0.00851420230468518 0.006905281846046189 -0.0006054954406080969
110 -0.005206230347075788 -0.003774635775576561 0.006922468452379831
25 -0.0018796626997020715 0.0006292760468026958 -0.005120042000107158
182 -0.004980672778739725 -0.00040458467192014 0.0030023786129867044
61 -0.003035885405861401 -0.0014863014592273083 -0.004314013155522953
181 -0.006142112718206066 0.01509805678062576 -0.006552809444829177
41 0.006579601215392995 0.0012229906377694635 -0.002701293402026595
141 -0.007482941269939386 -0.006624463104821307 -0.0007458112375960563
142 -0.00397382437418182 -0.0029558271250750084 0.019271185644162584
70 -0.010638182738571894 -0.0024368904303956 -0.009939069213934079
60 -0.004843548282064835 -0.0028189081562208012 0.0088928178851459
180 0.019269030965966872 0.010616266439099365 -0.005429085701411407
44 0.0050353972471136555 -0.0006770639004146197 0.0023598203747821804
148 -0.010194022285627201 0.007738901150851198 -0.00012340910011439626
82 -0.003189832011202716 -0.01110130581798979 0.008812144834487116
179 0.004884020469720972 0.016207663272396283 0.004120396841655475
81 0.0028124731593516883 0.004071241570019736 0.004040654739531937
11 -0.0029414204099121955 -0.003005803988034935 -0.0006994353011373585
99 0.008096283784504586 0.008435371621253662 0.006696342664640261
27 0.003111055249308694 0.004754726398566324 0.0012996817292659714
114 0.01860680412423077 0.014077056119895483 -0.006094067619338895
113 0.013501027071133903 -0.012172940254263702 0.02159789142053991
104 -0.0022315448580910013 0.005208214296368543 -0.008937071456399949
32 -0.00875738149690282 -0.0027032169083787906 -0.0007511392842338439
24 0.000855811342640763 -0.003560259925252541 -0.0015316688045111234
108 -0.027486951779824898 -0.019776400815069976 0.0007871205680635658
158 -0.010673913601535375 -0.011714260533484958 -0.006956629044431866
49 3.4480979556912785e-05 0.004911388151328825 -0.005537315396690238
157 0.0005036894712814222 -0.0033649189621034453 0.0005893999315682916
124 0.011164313061020309 -0.0013291751421346065 0.0032620095358030505
107 -0.01055466815053367 -0.0005033638864541267 0.006417901862365663
15 1.1861763267672616e-05 -0.002206538137793822 0.006374869662758509
89 -0.006048467673470214 -0.009374721968678697 -0.006079218174163247
90 -6.321670067082309e-05 0.0007276700503906924 -0.0020145819326289807
26 0.004555752613653726 0.003964328927050329 -0.0018520487984872442
63 -0.0021162487418676366 -0.0009665073020121908 -0.008355693123237914
186 0.010084421507631626 -0.022868436157073378 0.01728690983455971
185 0.014110315088927666 0.008400666126366932 0.014776712440663843
48 -0.002706047235808833 0.004307776863432831 -0.010115876155476492
155 0.022864548648233535 -0.0022469644239982746 0.021467906430926994
156 0.020895316480244 -0.002832101729852747 0.02634336362096279
147 0.004435545586418778 -0.008503136969399085 0.008116187261732391
111 -0.010006415947155681 8.170533750516583e-05 0.0011667000921619214
188 0.0032652800673242 -0.005723042608815583 0.012505527195753062
85 0.00687231770619805 -0.0024803692019144275 -0.015417531637020122
34 0.0033261955850449796 0.0005813240258713102 0.006273570347465048
13 0.00276116212404741 -0.005997093775101587 0.0013256086769379259
86 0.009990493254841705 -0.0024039568551120936 -0.0075657337560187665
170 0.006681767942802454 0.003813294141934162 -0.013866279210851953
55 -0.003968329857596382 0.00046537473216024775 -0.001560619105635852
109 -0.002064743858005271 0.0011854799112937008 -0.0012804570147440454
128 -0.012027134744669205 -0.005510567684407136 0.006868066603239019
160 0.022486871134557253 -0.012364171333188324 0.003868733035363405
50 -0.00410816771555854 0.0024358510734039363 0.0006813193845736434
159 -0.021829779943266868 -0.014660317059594752 0.00039283191982431254
187 -0.0008854225479901508 0.002164264813270066 -0.015392389183383844
64 -0.0008033807182316446 0.007178874986813642 -0.0022974460396645085
80 -0.006045091209262714 0.013876317719917758 -0.0024874322282319897
33 0.003451444512924674 -0.0010777623693095152 0.0029058226494586507
125 -0.013976251020413421 0.001154535685274868 -0.012492466428017306
67 0.003262657984879656 -0.0165734173339241 -0.005430771893051043
4 0.00589351345167501 -0.0023748509966672556 0.0008075437288575489
126 -0.007107920332325257 0.010747053507070812 -0.006422524855687016
144 -0.006523647390915756 -0.013514399874578642 0.0028454034277764213
76 0.005714782559963506 -0.0010578284993233308 0.005874231694800903
163 -0.018441323625868148 0.006200689471765031 -0.006193992441029363
52 0.001958897466614499 0.0029290423084128167 0.005065366810162456
164 0.0005187967982320217 -0.010924078007154201 0.0022072519110997754
35 0.0008472288097248613 -0.002072080972116739 0.002130808090006277
94 -0.005742240774658338 -0.0022965925665254824 -0.0038145137557897605
130 0.01029054803829266 -0.01738511802329694 -0.010241001957701376
28 -0.0005415458789787964 0.005317134418880532 0.001954741989147958
151 0.000494619375282316 -0.006247020047617819 -0.011693009315435099
46 -0.0066673960627666555 0.0011216929587919515 -0.0067821333346199
129 -0.017148892776196707 -0.008754835754334916 0.0031824882220093105
152 0.007693045056739762 -0.006112735298742112 -0.0024999947345011007
116 0.008045714854465333 -0.002505738655862647 0.015958370785147027
115 -0.007206801029372632 -0.004659914770224886 -0.002425646089204529
53 -0.0021135175274176504 -0.0063882251092398585 -0.0035425313114883024
165 -0.00039562282618501286 -0.03004747681449339 -0.015419292723188283
166 -0.016309950548743502 -0.011689746550428495 6.43775080588309e-05
6 -0.0013220989939058392 0.0054980369188388735 -0.0007458886597649668
51 0.0032022585065533443 -0.009442641048526875 -0.0033941668101067747
162 0.007259034481895506 -0.007822326317377736 0.009045456245599597
161 -0.009593381280580422 -0.0037557346527142704 -0.024932871294455254
100 -0.003549368110041161 -0.005866860914779913 -0.009394143693472941
20 -0.00811361694603525 0.00841966878944489 -0.001160388739996911
171 -0.0068765145417813206 0.008243484683226306 0.00804977254359438
56 -0.006219431529454856 0.001019554956256542 -0.0015420394812902002
172 -0.0017546494735767935 -0.0004986761099805787 -0.0006519610889508901
127 -0.0010518669398623252 0.02246968096512665 -0.011542140270339608
5 0.0026956319288485445 0.005243675406979644 -0.0033768610073284656
69 0.021866905047555358 -0.0031318295515305474 -0.028461445719548128
123 0.009799649434202274 0.00607370893379704 -2.0538715660918658e-05
92 0.010694891983103815 0.004432155920836329 0.008854144450278798
119 0.0040585411792541225 -0.005847711332024859 -0.016166658887762062
112 -0.0012999341705465144 0.01401066936114928 0.009446582115396127
143 0.0015319560577331766 -0.005999903068572467 0.005500985919789892
72 -0.010496010103683496 0.011898400858495643 -0.010052362354155655
122 -0.011961842252111249 0.0026908044439387583 0.019187486030781634
95 -0.010250634857090343 -0.015518952639248376 -0.005213203319910659
42 0.003595946936616857 -0.001967295672720872 0.00038120909070979306
18 0.002498935645189935 0.0002865692881506623 -0.0031134493288294076
96 -0.03128594509557794 -0.02048525523029834 0.003839128509107069
29 0.0011201484285322811 0.002041214587714104 -0.0005511524950928852
31 -0.0022658867408862585 -0.0007029027384241937 0.010047770074668921
150 0.016391807206831772 -0.010629946190105979 -0.003238034325806318
45 0.0008882912607199697 0.00011322692684659764 -0.0032507190688401974
149 -0.0019470230666024844 0.015372392683143969 -0.005395848924314211
117 -0.011139928457856572 0.00809956960677108 0.0057616514139884655
47 0.0054497915576439074 -0.0064642224122261165 -0.000972832218049139
153 0.0005107176964998532 -0.012945514732383158 0.015507988342252475
154 0.01402889463427771 0.008063931930571344 -0.014974789715808524
93 -0.016856697269015973 0.025563323942257545 0.0037786282930902383
17 0.001701054750226028 0.0024180010437319117 -0.00073507938630711
71 0.003346368499406739 0.002640527080674708 0.0024046838568245934
121 0.0035632991664663652 -0.0004050787892940975 -0.016998075716843933
84 -0.020270508120547426 0.007216803977046745 0.012363998132725975
12 -0.003300606342346586 0.00515404352604523 0.0046289541718779964
83 0.02304571515987496 -0.002601022478966312 -0.014402758101002945
138 0.010077889880313372 -0.010820054537517183 0.01135946137164293
137 0.002109437163041184 0.01046174619336276 0.003287716343339841
39 8.432909231717078e-08 0.007059321167256278 0.005144483338071085
3 0.00099535768542104 -0.0013306138744743194 7.039382978919504e-05
1 -0.007260153305708226 -0.0008432243481041078 -0.004105338329341272
7 -0.00433865051992103 -0.0012888643626953568 0.0008020838717246648
74 0.006872942734816631 0.001104397215160538 0.017080850869877737
131 -0.00681153818688857 0.001333997615423125 0.007254399474554456
73 -0.00034212078858198905 0.0027220151311073324 -0.002423445052065972
168 -0.01188801517306782 -0.009377722084322795 0.005170866065944427
101 -0.010319876051746961 0.012546633945792206 0.01093930922067018
21 -0.002842380344590857 0.006293315937594977 -0.0004630448735505709
102 0.0054933205556409615 0.005441368079373322 -0.020030728808441343
2 0.0013895708824093447 -0.001943266670195265 -0.0020710504751700015
68 -0.011352471082928002 0.02080538435261756 -0.015697830189504974
66 0.003936004287428697 -0.0005128337161477004 0.0036348181194414135
135 0.005973103032125598 0.000285873149082462 -0.006949727522892206
88 0.000694670436459205 0.017478058700643916 0.01584617851691952
145 -0.011759496028618767 -0.012728265252770559 -0.006936055938661673
87 -0.01745786805241093 0.007926863006931462 0.0018283491383151757
14 0.003004582553796075 -0.0017799098536527937 0.001477334395565524
43 -0.0016251490450974587 0.003516237748598732 0.0006923730158245367
146 0.004572813100988927 -0.006325889453774206 -0.014922158814841388
91 -0.0018135662699739785 0.014725923733166129 -0.008688183552718626
59 0.0016538485016937476 -0.0017582163658590346 -0.003114187153465486
177 0.012518557888727449 0.007721176024788159 -0.007628615826141148
178 -0.0057208545081460045 -0.00685991443481632 -0.0037394028892818658
36 0.0030581707280767072 0.004785751980936204 -0.00012074595635849352
23 -0.00042289026968245853 -6.397213710160512e-05 -0.0009919574086976201
105 -0.01266553615738052 0.00698481522100705 0.019077340581202196
106 0.0023861891018809914 -0.0043458858359295355 0.0030460535841965544
191 0.007831930591455266 0.010719329053497694 0.006295813565655941
192 -0.009815140900346134 -0.010776062156198996 0.0063231922860726595
22 -7.345166671603202e-05 -0.00017408584091022344 0.0007955972345894294
103 0.009832033039518576 0.01605025003129146 -0.00884534821486495
40 -0.0012161996380116468 0.002058464227420553 0.005730993385095578
134 -0.0015855550611305008 0.00661516481002948 -0.0034679527170594663
139 -0.014784888574887241 0.00557514439757192 -0.004652782982459486
37 0.0035993073991347152 -0.008014859999597434 0.0008130397314915252
133 -0.005905861478189456 0.012630612152109592 -0.0010855715435758753
16 0.0024206683867822286 -0.0027157189410792343 0.0004652727487869218
30 0.010321564750110984 0.0008966110159690776 0.007072966979976038
120 -0.009190735002753301 0.010646109948309296 -0.015325943367484744
140 0.019375772485747497 -0.0047728420364053096 -0.01212894775960123
38 0.0033427760977391484 0.003182868837949147 -0.0011645398929740806
136 -0.01548019668039652 -0.005508623405662633 -0.012437729197377623
118 -0.006721653687291259 -0.0005521356444438458 -0.020970589899771696
176 -0.005235791968365703 -0.010433392897287322 -0.007112391214394769
183 -0.008923716499344902 -0.002032190902199528 -0.0057006023348460284
62 -0.004225061159488758 -0.0037268060542089147 0.000554697688182516
184 0.006670340268851549 -0.024086405805344185 0.0050595586937479285
58 0.004460760715832596 1.4683630230352475e-05 0.006553638494578289
175 -0.002949191942861093 -0.005730860388022237 0.0012628468487943297
54 0.0013658882399300613 -0.002936886130152365 0.0010294831995097474
169 0.017699668832797444 0.012429967328991888 0.013317983598701552
167 0.0038153073422317017 0.018704873170757082 0.012318385523621828
9 0.0014417435398236063 -0.002195364796159421 0.0021709802924820554
77 0.0024570862321533628 -0.012125779862519878 0.004618242460566098
190 -0.004676612081773895 -0.007570811969818395 -0.023267089524909784
189 -0.005938973835302665 -0.032153076421580204 0.00498230536703432
65 -0.001188498774948079 0.001591845107489541 -0.0006196917995763835
19 -0.0041225066926383076 -0.005896864759388034 -0.003646394675294672
98 -0.001989443480219785 -0.0014186408309033965 0.01246374976415887
78 -0.003012571036474868 0.012652403278744935 0.0072599714975195625
97 0.0011930478628280811 -0.0016563816194586863 0.013357498663868858
